% clingo version 5.4.0
% Reading from Encodings/basic.lp ...
% Solving...
% Answer: 3
ANSWER
move(r1,v1a,v2a,0). move(r1,v2a,v2b,1). move(r1,v2b,v2c,2).
% 
% Models         : 3
% Calls          : 1
% Time           : 0.005s (Solving: 0.00s 1st Model: 0.00s Unsat: 0.00s)
% CPU Time       : 0.005s
